(set-info :smt-lib-version 2.6)
(set-logic QF_S)
(set-info :source |
Generated by: Oliver Markgraf, Hongjian Jiang, Daniel Stan, Anthony W. Lin, Philipp Ruemmer
Generated on: 2025-04-08
Application: Using String Solvers to solve RMC problems encoded as CHC over Strings
Target solver: cvc5, OSTRICH, Z3, Z3alpha, Z3-noodler
Time limit: 60.0
Benchmarks are extracted by running HornStr https://arg-git.informatik.uni-kl.de/pub/string-chc-lib on all benchmarks
provided in the repository and gathering the string queries sent to the string solvers.
|)
(set-info :license "https://creativecommons.org/licenses/by/4.0/")
(set-info :category "industrial")
(declare-fun varout () String)
(assert (let ((a!1 (re.* (re.union (re.union (str.to_re "L") (str.to_re "R"))
                           (str.to_re "T")))))
  (str.in_re varout a!1)))
(declare-fun varin () String)
(assert (let ((a!1 (re.* (re.union (re.union (str.to_re "L") (str.to_re "R"))
                           (str.to_re "T")))))
  (str.in_re varin a!1)))
(declare-fun X () String)
(declare-fun reg0 () String)
(declare-fun Y () String)
(declare-fun isin () Bool)
(declare-fun isout () Bool)
(assert (let ((a!1 (str.in_re reg0 (re.* (re.union (str.to_re "T") (str.to_re "L"))))))
  (or (and true
           (= X (str.++ reg0))
           (= Y (str.++ reg0))
           a!1
           (= X varin)
           isin
           (= Y varout)
           isout))))
(push 1)
(assert (let ((a!1 (re.union (re.union (str.to_re "R") (str.to_re "T"))
                     (re.++ (str.to_re "L")
                            (re.union (str.to_re "L") (str.to_re "T")))))
      (a!6 (re.union (re.union (str.to_re "L") (str.to_re "T"))
                     (re.++ (str.to_re "R")
                            (re.union (str.to_re "L") (str.to_re "T"))))))
(let ((a!2 (re.++ (re.* a!1) (re.union (str.to_re "") (re.++ a!1 (re.* a!1)))))
      (a!3 (re.++ a!1
                  (re.++ (re.* a!1) (re.++ (str.to_re "L") (str.to_re "R"))))))
(let ((a!4 (re.++ (re.* a!1)
                  (re.union (re.++ (str.to_re "L") (str.to_re "R")) a!3))))
(let ((a!5 (re.union (str.to_re "R")
                     (re.++ (re.union (str.to_re "L") (str.to_re "T")) a!4)))
      (a!7 (re.* (re.union (re.++ (str.to_re "R") (str.to_re "R"))
                           (re.++ a!6 a!4)))))
(let ((a!8 (re.++ (re.union (re.++ (str.to_re "R") (str.to_re "R"))
                            (re.++ a!6 a!4))
                  (re.++ a!7 (re.union (str.to_re "") (re.++ a!6 a!2))))))
(let ((a!9 (re.++ a!7 (re.union (re.union (str.to_re "") (re.++ a!6 a!2)) a!8))))
(let ((a!10 (re.union (re.++ (re.union (str.to_re "L") (str.to_re "T")) a!2)
                      (re.++ a!5 a!9))))
  (str.in_re varin a!10)))))))))
(assert (let ((a!1 (re.union (re.union (str.to_re "R") (str.to_re "T"))
                     (re.++ (str.to_re "L")
                            (re.union (str.to_re "L") (str.to_re "T")))))
      (a!7 (re.union (re.union (str.to_re "L") (str.to_re "T"))
                     (re.++ (str.to_re "R")
                            (re.union (str.to_re "L") (str.to_re "T"))))))
(let ((a!2 (re.union (str.to_re "L")
                     (re.++ a!1 (re.++ (re.* a!1) (str.to_re "L")))))
      (a!4 (re.++ a!1
                  (re.++ (re.* a!1) (re.++ (str.to_re "L") (str.to_re "R"))))))
(let ((a!3 (re.union (str.to_re "")
                     (re.++ (re.union (str.to_re "L") (str.to_re "T"))
                            (re.++ (re.* a!1) a!2))))
      (a!5 (re.++ (re.* a!1)
                  (re.union (re.++ (str.to_re "L") (str.to_re "R")) a!4)))
      (a!9 (re.union (str.to_re "R") (re.++ a!7 (re.++ (re.* a!1) a!2)))))
(let ((a!6 (re.union (str.to_re "R")
                     (re.++ (re.union (str.to_re "L") (str.to_re "T")) a!5)))
      (a!8 (re.* (re.union (re.++ (str.to_re "R") (str.to_re "R"))
                           (re.++ a!7 a!5)))))
(let ((a!10 (re.++ (re.union (re.++ (str.to_re "R") (str.to_re "R"))
                             (re.++ a!7 a!5))
                   (re.++ a!8 a!9))))
(let ((a!11 (re.union a!3 (re.++ a!6 (re.++ a!8 (re.union a!9 a!10))))))
  (str.in_re varout a!11))))))))
(set-info :status unknown)
(check-sat)
(pop 1)
(set-info :status unknown)
(check-sat)
(exit)
